; benchmark generated from python API
(set-info :status unknown)
(declare-fun cell_1_3 () Int)
(declare-fun cell_1_6 () Int)
(declare-fun cell_2_6 () Int)
(declare-fun cell_2_8 () Int)
(declare-fun cell_3_3 () Int)
(declare-fun cell_3_9 () Int)
(declare-fun cell_4_4 () Int)
(declare-fun cell_4_5 () Int)
(declare-fun cell_5_8 () Int)
(declare-fun cell_6_1 () Int)
(declare-fun cell_7_4 () Int)
(declare-fun cell_8_2 () Int)
(declare-fun cell_9_7 () Int)
(declare-fun cell_1_1 () Int)
(declare-fun cell_2_1 () Int)
(declare-fun cell_3_1 () Int)
(declare-fun cell_4_1 () Int)
(declare-fun cell_5_1 () Int)
(declare-fun cell_7_1 () Int)
(declare-fun cell_8_1 () Int)
(declare-fun cell_9_1 () Int)
(declare-fun cell_1_2 () Int)
(declare-fun cell_2_2 () Int)
(declare-fun cell_3_2 () Int)
(declare-fun cell_4_2 () Int)
(declare-fun cell_5_2 () Int)
(declare-fun cell_6_2 () Int)
(declare-fun cell_7_2 () Int)
(declare-fun cell_9_2 () Int)
(declare-fun cell_2_3 () Int)
(declare-fun cell_4_3 () Int)
(declare-fun cell_5_3 () Int)
(declare-fun cell_6_3 () Int)
(declare-fun cell_7_3 () Int)
(declare-fun cell_8_3 () Int)
(declare-fun cell_9_3 () Int)
(declare-fun cell_1_4 () Int)
(declare-fun cell_2_4 () Int)
(declare-fun cell_3_4 () Int)
(declare-fun cell_5_4 () Int)
(declare-fun cell_6_4 () Int)
(declare-fun cell_8_4 () Int)
(declare-fun cell_9_4 () Int)
(declare-fun cell_1_5 () Int)
(declare-fun cell_2_5 () Int)
(declare-fun cell_3_5 () Int)
(declare-fun cell_5_5 () Int)
(declare-fun cell_6_5 () Int)
(declare-fun cell_7_5 () Int)
(declare-fun cell_8_5 () Int)
(declare-fun cell_9_5 () Int)
(declare-fun cell_3_6 () Int)
(declare-fun cell_4_6 () Int)
(declare-fun cell_5_6 () Int)
(declare-fun cell_6_6 () Int)
(declare-fun cell_7_6 () Int)
(declare-fun cell_8_6 () Int)
(declare-fun cell_9_6 () Int)
(declare-fun cell_1_7 () Int)
(declare-fun cell_2_7 () Int)
(declare-fun cell_3_7 () Int)
(declare-fun cell_4_7 () Int)
(declare-fun cell_5_7 () Int)
(declare-fun cell_6_7 () Int)
(declare-fun cell_7_7 () Int)
(declare-fun cell_8_7 () Int)
(declare-fun cell_1_8 () Int)
(declare-fun cell_3_8 () Int)
(declare-fun cell_4_8 () Int)
(declare-fun cell_6_8 () Int)
(declare-fun cell_7_8 () Int)
(declare-fun cell_8_8 () Int)
(declare-fun cell_9_8 () Int)
(declare-fun cell_1_9 () Int)
(declare-fun cell_2_9 () Int)
(declare-fun cell_4_9 () Int)
(declare-fun cell_5_9 () Int)
(declare-fun cell_6_9 () Int)
(declare-fun cell_7_9 () Int)
(declare-fun cell_8_9 () Int)
(declare-fun cell_9_9 () Int)
(assert
 (= cell_1_3 1))
(assert
 (= cell_1_6 2))
(assert
 (= cell_2_6 1))
(assert
 (= cell_2_8 2))
(assert
 (= cell_3_3 2))
(assert
 (= cell_3_9 1))
(assert
 (= cell_4_4 2))
(assert
 (= cell_4_5 1))
(assert
 (= cell_5_8 1))
(assert
 (= cell_6_1 1))
(assert
 (= cell_7_4 1))
(assert
 (= cell_8_2 1))
(assert
 (= cell_9_7 1))
(assert
 (let (($x145 (= cell_1_1 9)))
 (let (($x2808 (= cell_1_1 8)))
 (let (($x1017 (= cell_1_1 7)))
 (let (($x3562 (= cell_1_1 6)))
 (let (($x2917 (= cell_1_1 5)))
 (let (($x707 (= cell_1_1 4)))
 (let (($x500 (= cell_1_1 3)))
 (let (($x196 (= cell_1_1 2)))
 (let (($x3234 (= cell_1_1 1)))
 (or $x3234 $x196 $x500 $x707 $x2917 $x3562 $x1017 $x2808 $x145)))))))))))
(assert
 (let (($x2752 (= cell_2_1 9)))
 (let (($x484 (= cell_2_1 8)))
 (let (($x3246 (= cell_2_1 7)))
 (let (($x3766 (= cell_2_1 6)))
 (let (($x1010 (= cell_2_1 5)))
 (let (($x1364 (= cell_2_1 4)))
 (let (($x1704 (= cell_2_1 3)))
 (let (($x3371 (= cell_2_1 2)))
 (let (($x164 (= cell_2_1 1)))
 (or $x164 $x3371 $x1704 $x1364 $x1010 $x3766 $x3246 $x484 $x2752)))))))))))
(assert
 (let (($x2543 (= cell_3_1 9)))
 (let (($x2497 (= cell_3_1 8)))
 (let (($x1373 (= cell_3_1 7)))
 (let (($x350 (= cell_3_1 6)))
 (let (($x1489 (= cell_3_1 5)))
 (let (($x1656 (= cell_3_1 4)))
 (let (($x2242 (= cell_3_1 3)))
 (let (($x1582 (= cell_3_1 2)))
 (let (($x139 (= cell_3_1 1)))
 (or $x139 $x1582 $x2242 $x1656 $x1489 $x350 $x1373 $x2497 $x2543)))))))))))
(assert
 (let (($x2020 (= cell_4_1 9)))
 (let (($x2175 (= cell_4_1 8)))
 (let (($x762 (= cell_4_1 7)))
 (let (($x2057 (= cell_4_1 6)))
 (let (($x129 (= cell_4_1 5)))
 (let (($x2604 (= cell_4_1 4)))
 (let (($x1366 (= cell_4_1 3)))
 (let (($x960 (= cell_4_1 2)))
 (let (($x558 (= cell_4_1 1)))
 (or $x558 $x960 $x1366 $x2604 $x129 $x2057 $x762 $x2175 $x2020)))))))))))
(assert
 (let (($x2011 (= cell_5_1 9)))
 (let (($x1115 (= cell_5_1 8)))
 (let (($x334 (= cell_5_1 7)))
 (let (($x2579 (= cell_5_1 6)))
 (let (($x854 (= cell_5_1 5)))
 (let (($x2987 (= cell_5_1 4)))
 (let (($x2484 (= cell_5_1 3)))
 (let (($x1332 (= cell_5_1 2)))
 (let (($x3012 (= cell_5_1 1)))
 (or $x3012 $x1332 $x2484 $x2987 $x854 $x2579 $x334 $x1115 $x2011)))))))))))
(assert
 (let (($x2583 (= cell_6_1 1)))
 (or $x2583 (= cell_6_1 2) (= cell_6_1 3) (= cell_6_1 4) (= cell_6_1 5) (= cell_6_1 6) (= cell_6_1 7) (= cell_6_1 8) (= cell_6_1 9))))
(assert
 (let (($x1877 (= cell_7_1 9)))
 (let (($x812 (= cell_7_1 8)))
 (let (($x831 (= cell_7_1 7)))
 (let (($x953 (= cell_7_1 6)))
 (let (($x1281 (= cell_7_1 5)))
 (let (($x2324 (= cell_7_1 4)))
 (let (($x227 (= cell_7_1 3)))
 (let (($x2125 (= cell_7_1 2)))
 (let (($x144 (= cell_7_1 1)))
 (or $x144 $x2125 $x227 $x2324 $x1281 $x953 $x831 $x812 $x1877)))))))))))
(assert
 (let (($x724 (= cell_8_1 9)))
 (let (($x2765 (= cell_8_1 8)))
 (let (($x210 (= cell_8_1 7)))
 (let (($x1274 (= cell_8_1 6)))
 (let (($x1269 (= cell_8_1 5)))
 (let (($x1150 (= cell_8_1 4)))
 (let (($x3782 (= cell_8_1 3)))
 (let (($x501 (= cell_8_1 2)))
 (let (($x1019 (= cell_8_1 1)))
 (or $x1019 $x501 $x3782 $x1150 $x1269 $x1274 $x210 $x2765 $x724)))))))))))
(assert
 (let (($x1955 (= cell_9_1 9)))
 (let (($x2993 (= cell_9_1 8)))
 (let (($x2272 (= cell_9_1 7)))
 (let (($x2108 (= cell_9_1 6)))
 (let (($x1201 (= cell_9_1 5)))
 (let (($x1647 (= cell_9_1 4)))
 (let (($x357 (= cell_9_1 3)))
 (let (($x2208 (= cell_9_1 2)))
 (let (($x1099 (= cell_9_1 1)))
 (or $x1099 $x2208 $x357 $x1647 $x1201 $x2108 $x2272 $x2993 $x1955)))))))))))
(assert
 (let (($x1333 (= cell_1_2 9)))
 (let (($x1329 (= cell_1_2 8)))
 (let (($x2294 (= cell_1_2 7)))
 (let (($x292 (= cell_1_2 6)))
 (let (($x2592 (= cell_1_2 5)))
 (let (($x2618 (= cell_1_2 4)))
 (let (($x2253 (= cell_1_2 3)))
 (let (($x159 (= cell_1_2 2)))
 (let (($x2138 (= cell_1_2 1)))
 (or $x2138 $x159 $x2253 $x2618 $x2592 $x292 $x2294 $x1329 $x1333)))))))))))
(assert
 (let (($x2315 (= cell_2_2 9)))
 (let (($x691 (= cell_2_2 8)))
 (let (($x1957 (= cell_2_2 7)))
 (let (($x1547 (= cell_2_2 6)))
 (let (($x1018 (= cell_2_2 5)))
 (let (($x1600 (= cell_2_2 4)))
 (let (($x1009 (= cell_2_2 3)))
 (let (($x3822 (= cell_2_2 2)))
 (let (($x2082 (= cell_2_2 1)))
 (or $x2082 $x3822 $x1009 $x1600 $x1018 $x1547 $x1957 $x691 $x2315)))))))))))
(assert
 (let (($x479 (= cell_3_2 9)))
 (let (($x1048 (= cell_3_2 8)))
 (let (($x821 (= cell_3_2 7)))
 (let (($x760 (= cell_3_2 6)))
 (let (($x2027 (= cell_3_2 5)))
 (let (($x894 (= cell_3_2 4)))
 (let (($x1851 (= cell_3_2 3)))
 (let (($x60 (= cell_3_2 2)))
 (let (($x442 (= cell_3_2 1)))
 (or $x442 $x60 $x1851 $x894 $x2027 $x760 $x821 $x1048 $x479)))))))))))
(assert
 (let (($x2326 (= cell_4_2 9)))
 (let (($x1483 (= cell_4_2 8)))
 (let (($x3781 (= cell_4_2 7)))
 (let (($x2977 (= cell_4_2 6)))
 (let (($x1535 (= cell_4_2 5)))
 (let (($x1519 (= cell_4_2 4)))
 (let (($x1056 (= cell_4_2 3)))
 (let (($x1311 (= cell_4_2 2)))
 (let (($x63 (= cell_4_2 1)))
 (or $x63 $x1311 $x1056 $x1519 $x1535 $x2977 $x3781 $x1483 $x2326)))))))))))
(assert
 (let (($x232 (= cell_5_2 9)))
 (let (($x259 (= cell_5_2 8)))
 (let (($x1606 (= cell_5_2 7)))
 (let (($x2428 (= cell_5_2 6)))
 (let (($x3795 (= cell_5_2 5)))
 (let (($x589 (= cell_5_2 4)))
 (let (($x254 (= cell_5_2 3)))
 (let (($x1982 (= cell_5_2 2)))
 (let (($x97 (= cell_5_2 1)))
 (or $x97 $x1982 $x254 $x589 $x3795 $x2428 $x1606 $x259 $x232)))))))))))
(assert
 (let (($x2919 (= cell_6_2 9)))
 (let (($x1381 (= cell_6_2 8)))
 (let (($x76 (= cell_6_2 7)))
 (let (($x2144 (= cell_6_2 6)))
 (let (($x233 (= cell_6_2 5)))
 (let (($x3186 (= cell_6_2 4)))
 (let (($x660 (= cell_6_2 3)))
 (let (($x1848 (= cell_6_2 2)))
 (let (($x3750 (= cell_6_2 1)))
 (or $x3750 $x1848 $x660 $x3186 $x233 $x2144 $x76 $x1381 $x2919)))))))))))
(assert
 (let (($x693 (= cell_7_2 9)))
 (let (($x1758 (= cell_7_2 8)))
 (let (($x2045 (= cell_7_2 7)))
 (let (($x2759 (= cell_7_2 6)))
 (let (($x115 (= cell_7_2 5)))
 (let (($x2824 (= cell_7_2 4)))
 (let (($x1868 (= cell_7_2 3)))
 (let (($x1466 (= cell_7_2 2)))
 (let (($x2910 (= cell_7_2 1)))
 (or $x2910 $x1466 $x1868 $x2824 $x115 $x2759 $x2045 $x1758 $x693)))))))))))
(assert
 (let (($x635 (= cell_8_2 1)))
 (or $x635 (= cell_8_2 2) (= cell_8_2 3) (= cell_8_2 4) (= cell_8_2 5) (= cell_8_2 6) (= cell_8_2 7) (= cell_8_2 8) (= cell_8_2 9))))
(assert
 (let (($x2630 (= cell_9_2 9)))
 (let (($x974 (= cell_9_2 8)))
 (let (($x1504 (= cell_9_2 7)))
 (let (($x1840 (= cell_9_2 6)))
 (let (($x1058 (= cell_9_2 5)))
 (let (($x3400 (= cell_9_2 4)))
 (let (($x3251 (= cell_9_2 3)))
 (let (($x2578 (= cell_9_2 2)))
 (let (($x224 (= cell_9_2 1)))
 (or $x224 $x2578 $x3251 $x3400 $x1058 $x1840 $x1504 $x974 $x2630)))))))))))
(assert
 (let (($x2814 (= cell_1_3 1)))
 (or $x2814 (= cell_1_3 2) (= cell_1_3 3) (= cell_1_3 4) (= cell_1_3 5) (= cell_1_3 6) (= cell_1_3 7) (= cell_1_3 8) (= cell_1_3 9))))
(assert
 (let (($x287 (= cell_2_3 9)))
 (let (($x642 (= cell_2_3 8)))
 (let (($x728 (= cell_2_3 7)))
 (let (($x1585 (= cell_2_3 6)))
 (let (($x1135 (= cell_2_3 5)))
 (let (($x1340 (= cell_2_3 4)))
 (let (($x2268 (= cell_2_3 3)))
 (let (($x938 (= cell_2_3 2)))
 (let (($x1651 (= cell_2_3 1)))
 (or $x1651 $x938 $x2268 $x1340 $x1135 $x1585 $x728 $x642 $x287)))))))))))
(assert
 (let (($x3685 (= cell_3_3 2)))
 (or (= cell_3_3 1) $x3685 (= cell_3_3 3) (= cell_3_3 4) (= cell_3_3 5) (= cell_3_3 6) (= cell_3_3 7) (= cell_3_3 8) (= cell_3_3 9))))
(assert
 (let (($x557 (= cell_4_3 9)))
 (let (($x450 (= cell_4_3 8)))
 (let (($x1613 (= cell_4_3 7)))
 (let (($x1867 (= cell_4_3 6)))
 (let (($x1033 (= cell_4_3 5)))
 (let (($x2827 (= cell_4_3 4)))
 (let (($x574 (= cell_4_3 3)))
 (let (($x2810 (= cell_4_3 2)))
 (let (($x89 (= cell_4_3 1)))
 (or $x89 $x2810 $x574 $x2827 $x1033 $x1867 $x1613 $x450 $x557)))))))))))
(assert
 (let (($x407 (= cell_5_3 9)))
 (let (($x2385 (= cell_5_3 8)))
 (let (($x1525 (= cell_5_3 7)))
 (let (($x310 (= cell_5_3 6)))
 (let (($x2840 (= cell_5_3 5)))
 (let (($x425 (= cell_5_3 4)))
 (let (($x2885 (= cell_5_3 3)))
 (let (($x176 (= cell_5_3 2)))
 (let (($x590 (= cell_5_3 1)))
 (or $x590 $x176 $x2885 $x425 $x2840 $x310 $x1525 $x2385 $x407)))))))))))
(assert
 (let (($x1170 (= cell_6_3 2)))
 (let (($x2733 (= cell_6_3 1)))
 (or $x2733 $x1170 (= cell_6_3 3) (= cell_6_3 4) (= cell_6_3 5) (= cell_6_3 6) (= cell_6_3 7) (= cell_6_3 8) (= cell_6_3 9)))))
(assert
 (let (($x1789 (= cell_7_3 9)))
 (let (($x80 (= cell_7_3 8)))
 (let (($x951 (= cell_7_3 7)))
 (let (($x1379 (= cell_7_3 6)))
 (let (($x594 (= cell_7_3 5)))
 (let (($x3202 (= cell_7_3 4)))
 (let (($x591 (= cell_7_3 3)))
 (let (($x3205 (= cell_7_3 2)))
 (let (($x1621 (= cell_7_3 1)))
 (or $x1621 $x3205 $x591 $x3202 $x594 $x1379 $x951 $x80 $x1789)))))))))))
(assert
 (let (($x2371 (= cell_8_3 2)))
 (let (($x2016 (= cell_8_3 1)))
 (or $x2016 $x2371 (= cell_8_3 3) (= cell_8_3 4) (= cell_8_3 5) (= cell_8_3 6) (= cell_8_3 7) (= cell_8_3 8) (= cell_8_3 9)))))
(assert
 (let (($x2366 (= cell_9_3 9)))
 (let (($x1893 (= cell_9_3 8)))
 (let (($x1791 (= cell_9_3 7)))
 (let (($x38 (= cell_9_3 6)))
 (let (($x1025 (= cell_9_3 5)))
 (let (($x528 (= cell_9_3 4)))
 (let (($x2316 (= cell_9_3 3)))
 (let (($x2855 (= cell_9_3 2)))
 (let (($x1365 (= cell_9_3 1)))
 (or $x1365 $x2855 $x2316 $x528 $x1025 $x38 $x1791 $x1893 $x2366)))))))))))
(assert
 (let (($x1894 (= cell_1_4 9)))
 (let (($x480 (= cell_1_4 8)))
 (let (($x2022 (= cell_1_4 7)))
 (let (($x1994 (= cell_1_4 6)))
 (let (($x1312 (= cell_1_4 5)))
 (let (($x1765 (= cell_1_4 4)))
 (let (($x1292 (= cell_1_4 3)))
 (let (($x916 (= cell_1_4 2)))
 (let (($x2773 (= cell_1_4 1)))
 (or $x2773 $x916 $x1292 $x1765 $x1312 $x1994 $x2022 $x480 $x1894)))))))))))
(assert
 (let (($x1180 (= cell_2_4 9)))
 (let (($x2197 (= cell_2_4 8)))
 (let (($x1944 (= cell_2_4 7)))
 (let (($x2501 (= cell_2_4 6)))
 (let (($x1941 (= cell_2_4 5)))
 (let (($x3663 (= cell_2_4 4)))
 (let (($x1935 (= cell_2_4 3)))
 (let (($x1818 (= cell_2_4 2)))
 (let (($x1673 (= cell_2_4 1)))
 (or $x1673 $x1818 $x1935 $x3663 $x1941 $x2501 $x1944 $x2197 $x1180)))))))))))
(assert
 (let (($x796 (= cell_3_4 9)))
 (let (($x2258 (= cell_3_4 8)))
 (let (($x950 (= cell_3_4 7)))
 (let (($x3711 (= cell_3_4 6)))
 (let (($x2762 (= cell_3_4 5)))
 (let (($x2121 (= cell_3_4 4)))
 (let (($x1842 (= cell_3_4 3)))
 (let (($x548 (= cell_3_4 2)))
 (let (($x1769 (= cell_3_4 1)))
 (or $x1769 $x548 $x1842 $x2121 $x2762 $x3711 $x950 $x2258 $x796)))))))))))
(assert
 (let (($x2458 (= cell_4_4 2)))
 (or (= cell_4_4 1) $x2458 (= cell_4_4 3) (= cell_4_4 4) (= cell_4_4 5) (= cell_4_4 6) (= cell_4_4 7) (= cell_4_4 8) (= cell_4_4 9))))
(assert
 (let (($x1116 (= cell_5_4 9)))
 (let (($x3731 (= cell_5_4 8)))
 (let (($x2077 (= cell_5_4 7)))
 (let (($x1988 (= cell_5_4 6)))
 (let (($x2237 (= cell_5_4 5)))
 (let (($x1110 (= cell_5_4 4)))
 (let (($x573 (= cell_5_4 3)))
 (let (($x1406 (= cell_5_4 2)))
 (let (($x1085 (= cell_5_4 1)))
 (or $x1085 $x1406 $x573 $x1110 $x2237 $x1988 $x2077 $x3731 $x1116)))))))))))
(assert
 (let (($x3215 (= cell_6_4 9)))
 (let (($x702 (= cell_6_4 8)))
 (let (($x1857 (= cell_6_4 7)))
 (let (($x367 (= cell_6_4 6)))
 (let (($x842 (= cell_6_4 5)))
 (let (($x1841 (= cell_6_4 4)))
 (let (($x723 (= cell_6_4 3)))
 (let (($x2383 (= cell_6_4 2)))
 (let (($x2113 (= cell_6_4 1)))
 (or $x2113 $x2383 $x723 $x1841 $x842 $x367 $x1857 $x702 $x3215)))))))))))
(assert
 (let (($x1427 (= cell_7_4 1)))
 (or $x1427 (= cell_7_4 2) (= cell_7_4 3) (= cell_7_4 4) (= cell_7_4 5) (= cell_7_4 6) (= cell_7_4 7) (= cell_7_4 8) (= cell_7_4 9))))
(assert
 (let (($x729 (= cell_8_4 2)))
 (let (($x459 (= cell_8_4 1)))
 (or $x459 $x729 (= cell_8_4 3) (= cell_8_4 4) (= cell_8_4 5) (= cell_8_4 6) (= cell_8_4 7) (= cell_8_4 8) (= cell_8_4 9)))))
(assert
 (let (($x1776 (= cell_9_4 9)))
 (let (($x3035 (= cell_9_4 8)))
 (let (($x3861 (= cell_9_4 7)))
 (let (($x520 (= cell_9_4 6)))
 (let (($x1369 (= cell_9_4 5)))
 (let (($x1844 (= cell_9_4 4)))
 (let (($x2051 (= cell_9_4 3)))
 (let (($x2537 (= cell_9_4 2)))
 (let (($x286 (= cell_9_4 1)))
 (or $x286 $x2537 $x2051 $x1844 $x1369 $x520 $x3861 $x3035 $x1776)))))))))))
(assert
 (let (($x2127 (= cell_1_5 9)))
 (let (($x625 (= cell_1_5 8)))
 (let (($x1265 (= cell_1_5 7)))
 (let (($x2621 (= cell_1_5 6)))
 (let (($x362 (= cell_1_5 5)))
 (let (($x859 (= cell_1_5 4)))
 (let (($x2087 (= cell_1_5 3)))
 (let (($x2303 (= cell_1_5 2)))
 (let (($x3390 (= cell_1_5 1)))
 (or $x3390 $x2303 $x2087 $x859 $x362 $x2621 $x1265 $x625 $x2127)))))))))))
(assert
 (let (($x75 (= cell_2_5 9)))
 (let (($x910 (= cell_2_5 8)))
 (let (($x395 (= cell_2_5 7)))
 (let (($x2563 (= cell_2_5 6)))
 (let (($x867 (= cell_2_5 5)))
 (let (($x202 (= cell_2_5 4)))
 (let (($x1551 (= cell_2_5 3)))
 (let (($x157 (= cell_2_5 2)))
 (let (($x3847 (= cell_2_5 1)))
 (or $x3847 $x157 $x1551 $x202 $x867 $x2563 $x395 $x910 $x75)))))))))))
(assert
 (let (($x1118 (= cell_3_5 9)))
 (let (($x267 (= cell_3_5 8)))
 (let (($x1239 (= cell_3_5 7)))
 (let (($x2560 (= cell_3_5 6)))
 (let (($x2696 (= cell_3_5 5)))
 (let (($x3139 (= cell_3_5 4)))
 (let (($x1385 (= cell_3_5 3)))
 (let (($x2348 (= cell_3_5 2)))
 (let (($x1680 (= cell_3_5 1)))
 (or $x1680 $x2348 $x1385 $x3139 $x2696 $x2560 $x1239 $x267 $x1118)))))))))))
(assert
 (let (($x228 (= cell_4_5 1)))
 (or $x228 (= cell_4_5 2) (= cell_4_5 3) (= cell_4_5 4) (= cell_4_5 5) (= cell_4_5 6) (= cell_4_5 7) (= cell_4_5 8) (= cell_4_5 9))))
(assert
 (let (($x2760 (= cell_5_5 9)))
 (let (($x1403 (= cell_5_5 8)))
 (let (($x2265 (= cell_5_5 7)))
 (let (($x2358 (= cell_5_5 6)))
 (let (($x1706 (= cell_5_5 5)))
 (let (($x556 (= cell_5_5 4)))
 (let (($x2182 (= cell_5_5 3)))
 (let (($x171 (= cell_5_5 2)))
 (let (($x1999 (= cell_5_5 1)))
 (or $x1999 $x171 $x2182 $x556 $x1706 $x2358 $x2265 $x1403 $x2760)))))))))))
(assert
 (let (($x1992 (= cell_6_5 9)))
 (let (($x53 (= cell_6_5 8)))
 (let (($x2092 (= cell_6_5 7)))
 (let (($x1828 (= cell_6_5 6)))
 (let (($x1745 (= cell_6_5 5)))
 (let (($x3121 (= cell_6_5 4)))
 (let (($x2845 (= cell_6_5 3)))
 (let (($x888 (= cell_6_5 2)))
 (let (($x2533 (= cell_6_5 1)))
 (or $x2533 $x888 $x2845 $x3121 $x1745 $x1828 $x2092 $x53 $x1992)))))))))))
(assert
 (let (($x2078 (= cell_7_5 1)))
 (or $x2078 (= cell_7_5 2) (= cell_7_5 3) (= cell_7_5 4) (= cell_7_5 5) (= cell_7_5 6) (= cell_7_5 7) (= cell_7_5 8) (= cell_7_5 9))))
(assert
 (let (($x2351 (= cell_8_5 1)))
 (or $x2351 (= cell_8_5 2) (= cell_8_5 3) (= cell_8_5 4) (= cell_8_5 5) (= cell_8_5 6) (= cell_8_5 7) (= cell_8_5 8) (= cell_8_5 9))))
(assert
 (let (($x2811 (= cell_9_5 9)))
 (let (($x2646 (= cell_9_5 8)))
 (let (($x2892 (= cell_9_5 7)))
 (let (($x1338 (= cell_9_5 6)))
 (let (($x1668 (= cell_9_5 5)))
 (let (($x3713 (= cell_9_5 4)))
 (let (($x890 (= cell_9_5 3)))
 (let (($x482 (= cell_9_5 2)))
 (let (($x1835 (= cell_9_5 1)))
 (or $x1835 $x482 $x890 $x3713 $x1668 $x1338 $x2892 $x2646 $x2811)))))))))))
(assert
 (let (($x850 (= cell_1_6 2)))
 (or (= cell_1_6 1) $x850 (= cell_1_6 3) (= cell_1_6 4) (= cell_1_6 5) (= cell_1_6 6) (= cell_1_6 7) (= cell_1_6 8) (= cell_1_6 9))))
(assert
 (let (($x1238 (= cell_2_6 1)))
 (or $x1238 (= cell_2_6 2) (= cell_2_6 3) (= cell_2_6 4) (= cell_2_6 5) (= cell_2_6 6) (= cell_2_6 7) (= cell_2_6 8) (= cell_2_6 9))))
(assert
 (let (($x1534 (= cell_3_6 9)))
 (let (($x2235 (= cell_3_6 8)))
 (let (($x2004 (= cell_3_6 7)))
 (let (($x2741 (= cell_3_6 6)))
 (let (($x2767 (= cell_3_6 5)))
 (let (($x3833 (= cell_3_6 4)))
 (let (($x2631 (= cell_3_6 3)))
 (let (($x1548 (= cell_3_6 2)))
 (let (($x935 (= cell_3_6 1)))
 (or $x935 $x1548 $x2631 $x3833 $x2767 $x2741 $x2004 $x2235 $x1534)))))))))))
(assert
 (let (($x1727 (= cell_4_6 2)))
 (let (($x1148 (= cell_4_6 1)))
 (or $x1148 $x1727 (= cell_4_6 3) (= cell_4_6 4) (= cell_4_6 5) (= cell_4_6 6) (= cell_4_6 7) (= cell_4_6 8) (= cell_4_6 9)))))
(assert
 (let (($x2255 (= cell_5_6 9)))
 (let (($x1290 (= cell_5_6 8)))
 (let (($x169 (= cell_5_6 7)))
 (let (($x1374 (= cell_5_6 6)))
 (let (($x1240 (= cell_5_6 5)))
 (let (($x1488 (= cell_5_6 4)))
 (let (($x3448 (= cell_5_6 3)))
 (let (($x1192 (= cell_5_6 2)))
 (let (($x1367 (= cell_5_6 1)))
 (or $x1367 $x1192 $x3448 $x1488 $x1240 $x1374 $x169 $x1290 $x2255)))))))))))
(assert
 (let (($x1837 (= cell_6_6 2)))
 (let (($x1733 (= cell_6_6 1)))
 (or $x1733 $x1837 (= cell_6_6 3) (= cell_6_6 4) (= cell_6_6 5) (= cell_6_6 6) (= cell_6_6 7) (= cell_6_6 8) (= cell_6_6 9)))))
(assert
 (let (($x1244 (= cell_7_6 2)))
 (let (($x3849 (= cell_7_6 1)))
 (or $x3849 $x1244 (= cell_7_6 3) (= cell_7_6 4) (= cell_7_6 5) (= cell_7_6 6) (= cell_7_6 7) (= cell_7_6 8) (= cell_7_6 9)))))
(assert
 (let (($x5 (= cell_8_6 2)))
 (let (($x686 (= cell_8_6 1)))
 (or $x686 $x5 (= cell_8_6 3) (= cell_8_6 4) (= cell_8_6 5) (= cell_8_6 6) (= cell_8_6 7) (= cell_8_6 8) (= cell_8_6 9)))))
(assert
 (let (($x1171 (= cell_9_6 9)))
 (let (($x1991 (= cell_9_6 8)))
 (let (($x3435 (= cell_9_6 7)))
 (let (($x3521 (= cell_9_6 6)))
 (let (($x244 (= cell_9_6 5)))
 (let (($x1911 (= cell_9_6 4)))
 (let (($x2790 (= cell_9_6 3)))
 (let (($x1259 (= cell_9_6 2)))
 (let (($x104 (= cell_9_6 1)))
 (or $x104 $x1259 $x2790 $x1911 $x244 $x3521 $x3435 $x1991 $x1171)))))))))))
(assert
 (let (($x1108 (= cell_1_7 9)))
 (let (($x94 (= cell_1_7 8)))
 (let (($x2918 (= cell_1_7 7)))
 (let (($x2985 (= cell_1_7 6)))
 (let (($x674 (= cell_1_7 5)))
 (let (($x2431 (= cell_1_7 4)))
 (let (($x2337 (= cell_1_7 3)))
 (let (($x2343 (= cell_1_7 2)))
 (let (($x1447 (= cell_1_7 1)))
 (or $x1447 $x2343 $x2337 $x2431 $x674 $x2985 $x2918 $x94 $x1108)))))))))))
(assert
 (let (($x2597 (= cell_2_7 9)))
 (let (($x1802 (= cell_2_7 8)))
 (let (($x1595 (= cell_2_7 7)))
 (let (($x2904 (= cell_2_7 6)))
 (let (($x2421 (= cell_2_7 5)))
 (let (($x1260 (= cell_2_7 4)))
 (let (($x525 (= cell_2_7 3)))
 (let (($x2596 (= cell_2_7 2)))
 (let (($x1653 (= cell_2_7 1)))
 (or $x1653 $x2596 $x525 $x1260 $x2421 $x2904 $x1595 $x1802 $x2597)))))))))))
(assert
 (let (($x3725 (= cell_3_7 9)))
 (let (($x2203 (= cell_3_7 8)))
 (let (($x1307 (= cell_3_7 7)))
 (let (($x1813 (= cell_3_7 6)))
 (let (($x2758 (= cell_3_7 5)))
 (let (($x1355 (= cell_3_7 4)))
 (let (($x2705 (= cell_3_7 3)))
 (let (($x1657 (= cell_3_7 2)))
 (let (($x146 (= cell_3_7 1)))
 (or $x146 $x1657 $x2705 $x1355 $x2758 $x1813 $x1307 $x2203 $x3725)))))))))))
(assert
 (let (($x2048 (= cell_4_7 9)))
 (let (($x1919 (= cell_4_7 8)))
 (let (($x2893 (= cell_4_7 7)))
 (let (($x1882 (= cell_4_7 6)))
 (let (($x2352 (= cell_4_7 5)))
 (let (($x2816 (= cell_4_7 4)))
 (let (($x3278 (= cell_4_7 3)))
 (let (($x730 (= cell_4_7 2)))
 (let (($x1862 (= cell_4_7 1)))
 (or $x1862 $x730 $x3278 $x2816 $x2352 $x1882 $x2893 $x1919 $x2048)))))))))))
(assert
 (let (($x1969 (= cell_5_7 9)))
 (let (($x2310 (= cell_5_7 8)))
 (let (($x2931 (= cell_5_7 7)))
 (let (($x1884 (= cell_5_7 6)))
 (let (($x578 (= cell_5_7 5)))
 (let (($x568 (= cell_5_7 4)))
 (let (($x780 (= cell_5_7 3)))
 (let (($x20 (= cell_5_7 2)))
 (let (($x44 (= cell_5_7 1)))
 (or $x44 $x20 $x780 $x568 $x578 $x1884 $x2931 $x2310 $x1969)))))))))))
(assert
 (let (($x1650 (= cell_6_7 9)))
 (let (($x3190 (= cell_6_7 8)))
 (let (($x1509 (= cell_6_7 7)))
 (let (($x1445 (= cell_6_7 6)))
 (let (($x1342 (= cell_6_7 5)))
 (let (($x1462 (= cell_6_7 4)))
 (let (($x794 (= cell_6_7 3)))
 (let (($x741 (= cell_6_7 2)))
 (let (($x1612 (= cell_6_7 1)))
 (or $x1612 $x741 $x794 $x1462 $x1342 $x1445 $x1509 $x3190 $x1650)))))))))))
(assert
 (let (($x1804 (= cell_7_7 9)))
 (let (($x51 (= cell_7_7 8)))
 (let (($x456 (= cell_7_7 7)))
 (let (($x1883 (= cell_7_7 6)))
 (let (($x412 (= cell_7_7 5)))
 (let (($x515 (= cell_7_7 4)))
 (let (($x2826 (= cell_7_7 3)))
 (let (($x3461 (= cell_7_7 2)))
 (let (($x54 (= cell_7_7 1)))
 (or $x54 $x3461 $x2826 $x515 $x412 $x1883 $x456 $x51 $x1804)))))))))))
(assert
 (let (($x2648 (= cell_8_7 9)))
 (let (($x3748 (= cell_8_7 8)))
 (let (($x150 (= cell_8_7 7)))
 (let (($x952 (= cell_8_7 6)))
 (let (($x2477 (= cell_8_7 5)))
 (let (($x225 (= cell_8_7 4)))
 (let (($x3601 (= cell_8_7 3)))
 (let (($x2321 (= cell_8_7 2)))
 (let (($x947 (= cell_8_7 1)))
 (or $x947 $x2321 $x3601 $x225 $x2477 $x952 $x150 $x3748 $x2648)))))))))))
(assert
 (let (($x3197 (= cell_9_7 1)))
 (or $x3197 (= cell_9_7 2) (= cell_9_7 3) (= cell_9_7 4) (= cell_9_7 5) (= cell_9_7 6) (= cell_9_7 7) (= cell_9_7 8) (= cell_9_7 9))))
(assert
 (let (($x1323 (= cell_1_8 9)))
 (let (($x3116 (= cell_1_8 8)))
 (let (($x1486 (= cell_1_8 7)))
 (let (($x177 (= cell_1_8 6)))
 (let (($x1461 (= cell_1_8 5)))
 (let (($x2325 (= cell_1_8 4)))
 (let (($x2365 (= cell_1_8 3)))
 (let (($x624 (= cell_1_8 2)))
 (let (($x1156 (= cell_1_8 1)))
 (or $x1156 $x624 $x2365 $x2325 $x1461 $x177 $x1486 $x3116 $x1323)))))))))))
(assert
 (let (($x1683 (= cell_2_8 2)))
 (or (= cell_2_8 1) $x1683 (= cell_2_8 3) (= cell_2_8 4) (= cell_2_8 5) (= cell_2_8 6) (= cell_2_8 7) (= cell_2_8 8) (= cell_2_8 9))))
(assert
 (let (($x2807 (= cell_3_8 9)))
 (let (($x1798 (= cell_3_8 8)))
 (let (($x366 (= cell_3_8 7)))
 (let (($x534 (= cell_3_8 6)))
 (let (($x599 (= cell_3_8 5)))
 (let (($x2538 (= cell_3_8 4)))
 (let (($x3146 (= cell_3_8 3)))
 (let (($x2398 (= cell_3_8 2)))
 (let (($x462 (= cell_3_8 1)))
 (or $x462 $x2398 $x3146 $x2538 $x599 $x534 $x366 $x1798 $x2807)))))))))))
(assert
 (let (($x1030 (= cell_4_8 9)))
 (let (($x179 (= cell_4_8 8)))
 (let (($x822 (= cell_4_8 7)))
 (let (($x226 (= cell_4_8 6)))
 (let (($x705 (= cell_4_8 5)))
 (let (($x1750 (= cell_4_8 4)))
 (let (($x2176 (= cell_4_8 3)))
 (let (($x391 (= cell_4_8 2)))
 (let (($x1456 (= cell_4_8 1)))
 (or $x1456 $x391 $x2176 $x1750 $x705 $x226 $x822 $x179 $x1030)))))))))))
(assert
 (let (($x1924 (= cell_5_8 1)))
 (or $x1924 (= cell_5_8 2) (= cell_5_8 3) (= cell_5_8 4) (= cell_5_8 5) (= cell_5_8 6) (= cell_5_8 7) (= cell_5_8 8) (= cell_5_8 9))))
(assert
 (let (($x1628 (= cell_6_8 2)))
 (let (($x373 (= cell_6_8 1)))
 (or $x373 $x1628 (= cell_6_8 3) (= cell_6_8 4) (= cell_6_8 5) (= cell_6_8 6) (= cell_6_8 7) (= cell_6_8 8) (= cell_6_8 9)))))
(assert
 (let (($x1940 (= cell_7_8 9)))
 (let (($x2844 (= cell_7_8 8)))
 (let (($x434 (= cell_7_8 7)))
 (let (($x945 (= cell_7_8 6)))
 (let (($x182 (= cell_7_8 5)))
 (let (($x1183 (= cell_7_8 4)))
 (let (($x101 (= cell_7_8 3)))
 (let (($x2605 (= cell_7_8 2)))
 (let (($x449 (= cell_7_8 1)))
 (or $x449 $x2605 $x101 $x1183 $x182 $x945 $x434 $x2844 $x1940)))))))))))
(assert
 (let (($x871 (= cell_8_8 9)))
 (let (($x2214 (= cell_8_8 8)))
 (let (($x1826 (= cell_8_8 7)))
 (let (($x1954 (= cell_8_8 6)))
 (let (($x502 (= cell_8_8 5)))
 (let (($x1283 (= cell_8_8 4)))
 (let (($x1336 (= cell_8_8 3)))
 (let (($x3508 (= cell_8_8 2)))
 (let (($x1946 (= cell_8_8 1)))
 (or $x1946 $x3508 $x1336 $x1283 $x502 $x1954 $x1826 $x2214 $x871)))))))))))
(assert
 (let (($x2510 (= cell_9_8 2)))
 (let (($x1806 (= cell_9_8 1)))
 (or $x1806 $x2510 (= cell_9_8 3) (= cell_9_8 4) (= cell_9_8 5) (= cell_9_8 6) (= cell_9_8 7) (= cell_9_8 8) (= cell_9_8 9)))))
(assert
 (let (($x405 (= cell_1_9 9)))
 (let (($x2137 (= cell_1_9 8)))
 (let (($x1962 (= cell_1_9 7)))
 (let (($x1418 (= cell_1_9 6)))
 (let (($x443 (= cell_1_9 5)))
 (let (($x1350 (= cell_1_9 4)))
 (let (($x2834 (= cell_1_9 3)))
 (let (($x1978 (= cell_1_9 2)))
 (let (($x2512 (= cell_1_9 1)))
 (or $x2512 $x1978 $x2834 $x1350 $x443 $x1418 $x1962 $x2137 $x405)))))))))))
(assert
 (let (($x1614 (= cell_2_9 9)))
 (let (($x2869 (= cell_2_9 8)))
 (let (($x1036 (= cell_2_9 7)))
 (let (($x2228 (= cell_2_9 6)))
 (let (($x1315 (= cell_2_9 5)))
 (let (($x1554 (= cell_2_9 4)))
 (let (($x1759 (= cell_2_9 3)))
 (let (($x3499 (= cell_2_9 2)))
 (let (($x1660 (= cell_2_9 1)))
 (or $x1660 $x3499 $x1759 $x1554 $x1315 $x2228 $x1036 $x2869 $x1614)))))))))))
(assert
 (let (($x2802 (= cell_3_9 1)))
 (or $x2802 (= cell_3_9 2) (= cell_3_9 3) (= cell_3_9 4) (= cell_3_9 5) (= cell_3_9 6) (= cell_3_9 7) (= cell_3_9 8) (= cell_3_9 9))))
(assert
 (let (($x209 (= cell_4_9 9)))
 (let (($x711 (= cell_4_9 8)))
 (let (($x382 (= cell_4_9 7)))
 (let (($x1710 (= cell_4_9 6)))
 (let (($x1507 (= cell_4_9 5)))
 (let (($x2749 (= cell_4_9 4)))
 (let (($x1755 (= cell_4_9 3)))
 (let (($x3783 (= cell_4_9 2)))
 (let (($x326 (= cell_4_9 1)))
 (or $x326 $x3783 $x1755 $x2749 $x1507 $x1710 $x382 $x711 $x209)))))))))))
(assert
 (let (($x83 (= cell_5_9 1)))
 (or $x83 (= cell_5_9 2) (= cell_5_9 3) (= cell_5_9 4) (= cell_5_9 5) (= cell_5_9 6) (= cell_5_9 7) (= cell_5_9 8) (= cell_5_9 9))))
(assert
 (let (($x141 (= cell_6_9 1)))
 (or $x141 (= cell_6_9 2) (= cell_6_9 3) (= cell_6_9 4) (= cell_6_9 5) (= cell_6_9 6) (= cell_6_9 7) (= cell_6_9 8) (= cell_6_9 9))))
(assert
 (let (($x2489 (= cell_7_9 9)))
 (let (($x379 (= cell_7_9 8)))
 (let (($x774 (= cell_7_9 7)))
 (let (($x1616 (= cell_7_9 6)))
 (let (($x475 (= cell_7_9 5)))
 (let (($x1453 (= cell_7_9 4)))
 (let (($x3492 (= cell_7_9 3)))
 (let (($x2934 (= cell_7_9 2)))
 (let (($x2042 (= cell_7_9 1)))
 (or $x2042 $x2934 $x3492 $x1453 $x475 $x1616 $x774 $x379 $x2489)))))))))))
(assert
 (let (($x1052 (= cell_8_9 9)))
 (let (($x2323 (= cell_8_9 8)))
 (let (($x3445 (= cell_8_9 7)))
 (let (($x24 (= cell_8_9 6)))
 (let (($x645 (= cell_8_9 5)))
 (let (($x274 (= cell_8_9 4)))
 (let (($x694 (= cell_8_9 3)))
 (let (($x1850 (= cell_8_9 2)))
 (let (($x413 (= cell_8_9 1)))
 (or $x413 $x1850 $x694 $x274 $x645 $x24 $x3445 $x2323 $x1052)))))))))))
(assert
 (let (($x2519 (= cell_9_9 1)))
 (or $x2519 (= cell_9_9 2) (= cell_9_9 3) (= cell_9_9 4) (= cell_9_9 5) (= cell_9_9 6) (= cell_9_9 7) (= cell_9_9 8) (= cell_9_9 9))))
(assert
 (and (distinct cell_1_1 cell_1_2 cell_1_3 cell_1_4 cell_1_5 cell_1_6 cell_1_7 cell_1_8 cell_1_9) true))
(assert
 (and (distinct cell_2_1 cell_2_2 cell_2_3 cell_2_4 cell_2_5 cell_2_6 cell_2_7 cell_2_8 cell_2_9) true))
(assert
 (and (distinct cell_3_1 cell_3_2 cell_3_3 cell_3_4 cell_3_5 cell_3_6 cell_3_7 cell_3_8 cell_3_9) true))
(assert
 (and (distinct cell_4_1 cell_4_2 cell_4_3 cell_4_4 cell_4_5 cell_4_6 cell_4_7 cell_4_8 cell_4_9) true))
(assert
 (and (distinct cell_5_1 cell_5_2 cell_5_3 cell_5_4 cell_5_5 cell_5_6 cell_5_7 cell_5_8 cell_5_9) true))
(assert
 (and (distinct cell_6_1 cell_6_2 cell_6_3 cell_6_4 cell_6_5 cell_6_6 cell_6_7 cell_6_8 cell_6_9) true))
(assert
 (and (distinct cell_7_1 cell_7_2 cell_7_3 cell_7_4 cell_7_5 cell_7_6 cell_7_7 cell_7_8 cell_7_9) true))
(assert
 (and (distinct cell_8_1 cell_8_2 cell_8_3 cell_8_4 cell_8_5 cell_8_6 cell_8_7 cell_8_8 cell_8_9) true))
(assert
 (and (distinct cell_9_1 cell_9_2 cell_9_3 cell_9_4 cell_9_5 cell_9_6 cell_9_7 cell_9_8 cell_9_9) true))
(assert
 (and (distinct cell_1_1 cell_2_1 cell_3_1 cell_4_1 cell_5_1 cell_6_1 cell_7_1 cell_8_1 cell_9_1) true))
(assert
 (and (distinct cell_1_2 cell_2_2 cell_3_2 cell_4_2 cell_5_2 cell_6_2 cell_7_2 cell_8_2 cell_9_2) true))
(assert
 (and (distinct cell_1_3 cell_2_3 cell_3_3 cell_4_3 cell_5_3 cell_6_3 cell_7_3 cell_8_3 cell_9_3) true))
(assert
 (and (distinct cell_1_4 cell_2_4 cell_3_4 cell_4_4 cell_5_4 cell_6_4 cell_7_4 cell_8_4 cell_9_4) true))
(assert
 (and (distinct cell_1_5 cell_2_5 cell_3_5 cell_4_5 cell_5_5 cell_6_5 cell_7_5 cell_8_5 cell_9_5) true))
(assert
 (and (distinct cell_1_6 cell_2_6 cell_3_6 cell_4_6 cell_5_6 cell_6_6 cell_7_6 cell_8_6 cell_9_6) true))
(assert
 (and (distinct cell_1_7 cell_2_7 cell_3_7 cell_4_7 cell_5_7 cell_6_7 cell_7_7 cell_8_7 cell_9_7) true))
(assert
 (and (distinct cell_1_8 cell_2_8 cell_3_8 cell_4_8 cell_5_8 cell_6_8 cell_7_8 cell_8_8 cell_9_8) true))
(assert
 (and (distinct cell_1_9 cell_2_9 cell_3_9 cell_4_9 cell_5_9 cell_6_9 cell_7_9 cell_8_9 cell_9_9) true))
(assert
 (and (distinct cell_1_1 cell_1_2 cell_1_3 cell_2_1 cell_2_2 cell_2_3 cell_3_1 cell_3_2 cell_3_3) true))
(assert
 (and (distinct cell_1_4 cell_1_5 cell_1_6 cell_2_4 cell_2_5 cell_2_6 cell_3_4 cell_3_5 cell_3_6) true))
(assert
 (and (distinct cell_1_7 cell_1_8 cell_1_9 cell_2_7 cell_2_8 cell_2_9 cell_3_7 cell_3_8 cell_3_9) true))
(assert
 (and (distinct cell_4_1 cell_4_2 cell_4_3 cell_5_1 cell_5_2 cell_5_3 cell_6_1 cell_6_2 cell_6_3) true))
(assert
 (and (distinct cell_4_4 cell_4_5 cell_4_6 cell_5_4 cell_5_5 cell_5_6 cell_6_4 cell_6_5 cell_6_6) true))
(assert
 (and (distinct cell_4_7 cell_4_8 cell_4_9 cell_5_7 cell_5_8 cell_5_9 cell_6_7 cell_6_8 cell_6_9) true))
(assert
 (and (distinct cell_7_1 cell_7_2 cell_7_3 cell_8_1 cell_8_2 cell_8_3 cell_9_1 cell_9_2 cell_9_3) true))
(assert
 (and (distinct cell_7_4 cell_7_5 cell_7_6 cell_8_4 cell_8_5 cell_8_6 cell_9_4 cell_9_5 cell_9_6) true))
(assert
 (and (distinct cell_7_7 cell_7_8 cell_7_9 cell_8_7 cell_8_8 cell_8_9 cell_9_7 cell_9_8 cell_9_9) true))
(assert
 (let (($x605 (and (distinct cell_5_9 cell_6_8 cell_7_7 cell_8_6) true)))
 (let (($x3465 (and (distinct cell_2_9 cell_3_8 cell_4_7 cell_5_6 cell_6_5 cell_7_4 cell_8_3 cell_9_2) true)))
 (let (($x1382 (and (distinct cell_1_8 cell_2_7 cell_3_6 cell_4_5 cell_5_4 cell_6_3 cell_7_2 cell_8_1) true)))
 (let (($x494 (and (distinct cell_1_5 cell_2_4 cell_3_3 cell_4_2) true)))
 (let (($x1131 (and (distinct cell_5_1 cell_6_2 cell_7_3 cell_8_4) true)))
 (let (($x394 (and (distinct cell_2_1 cell_3_2 cell_4_3 cell_5_4 cell_6_5 cell_7_6 cell_8_7 cell_9_8) true)))
 (let (($x314 (and (distinct cell_1_2 cell_2_3 cell_3_4 cell_4_5 cell_5_6 cell_6_7 cell_7_8 cell_8_9) true)))
 (let (($x1881 (and (distinct cell_1_5 cell_2_6 cell_3_7 cell_4_8) true)))
 (and $x1881 $x314 $x394 $x1131 $x494 $x1382 $x3465 $x605))))))))))
(assert
 (= cell_5_1 2))
(check-sat)
